20
72.8
0 19 11.39 3.21
1 18 12.02 3.81
2 17 10.22 3.18
3 16 10.73 2.35
4 15 12.5 3.3
5 14 10.77 2.77
6 13 11.6 3.18
7 12 11.29 3.04
8 11 12.39 3.19
9 10 11.46 2.7
10 9 9.68 2.8
11 8 9.3 3.75
12 7 13.34 2.75
13 6 8.8 3.55
14 5 10.88 2.67
15 4 12.19 3.29
16 3 10.28 3.28
17 2 11.07 3.18
18 1 9.77 5.28
